52
18 40 92
40 7 64
7 8 183
8 9 83
9 42 308
42 32 365
32 50 475
50 10 285
10 51 399
51 13 319
13 12 206
12 26 185
26 11 283
11 27 182
27 25 159
25 46 186
46 28 523
28 29 260
29 52 436
52 1 150
1 6 45
6 41 76
41 16 408
16 2 217
2 17 135
17 30 80
30 20 150
20 22 187
22 19 94
19 49 35
49 15 130
15 43 132
43 45 131
45 24 173
24 3 109
3 5 70
5 14 40
14 4 25
4 23 32
23 47 16
47 37 49
37 36 43
36 39 41
39 38 43
38 33 59
33 34 21
34 35 15
35 48 81
48 21 94
21 31 97
31 44 151
44 18 75

